% File represents an instance of a Composite Structure problem to be solved by a CP framework
% Created on 2025-03-26 10:41:48.175
T = 52;
n = 36;
m = 60;
edges = [(1, 2),
(7, 8),
(13, 14),
(19, 20),
(26, 25),
(31, 32),
(2, 3),
(8, 9),
(15, 14),
(21, 20),
(26, 27),
(32, 33),
(3, 4),
(10, 9),
(16, 15),
(21, 22),
(27, 28),
(34, 33),
(4, 5),
(11, 10),
(17, 16),
(23, 22),
(29, 28),
(35, 34),
(6, 5),
(12, 11),
(17, 18),
(23, 24),
(30, 29),
(35, 36),
(1, 7),
(7, 13),
(13, 19),
(19, 25),
(31, 25),
(2, 8),
(8, 14),
(20, 14),
(26, 20),
(26, 32),
(3, 9),
(9, 15),
(21, 15),
(21, 27),
(27, 33),
(10, 4),
(16, 10),
(16, 22),
(22, 28),
(34, 28),
(11, 5),
(17, 11),
(17, 23),
(23, 29),
(35, 29),
(12, 6),
(12, 18),
(18, 24),
(30, 24),
(36, 30)];
counts = [|14, 10, 14, 14,
|14, 4, 14, 14,
|14, 2, 14, 12,
|12, 2, 12, 12,
|12, 2, 12, 10,
|12, 2, 12, 12,
|12, 10, 12, 12,
|12, 4, 12, 12,
|12, 2, 12, 12,
|12, 2, 12, 14,
|12, 2, 12, 16,
|12, 2, 12, 18,
|12, 6, 12, 10,
|12, 2, 12, 8,
|12, 2, 12, 10,
|12, 2, 12, 16,
|14, 2, 14, 16,
|12, 2, 12, 14,
|12, 4, 12, 10,
|12, 2, 12, 10,
|12, 4, 12, 10,
|12, 2, 12, 10,
|14, 2, 14, 10,
|12, 2, 12, 10,
|12, 2, 12, 8,
|12, 4, 12, 10,
|12, 4, 12, 8,
|12, 2, 12, 4,
|12, 2, 12, 10,
|12, 2, 12, 12,
|12, 6, 12, 8,
|12, 4, 12, 8,
|12, 4, 12, 2,
|12, 4, 12, 8,
|12, 4, 12, 14,
|12, 2, 12, 14|];
